1 0 14
2 6 17
3 8 17
4 13 17
5 7 15
6 0 10
7 13 14
8 16 13
9 14 11
10 13 12
11 10 13
12 9 13
13 9 12
14 10 12
15 10 10
16 6 10
17 0 5
18 4 7
19 11 9
20 13 11
21 13 9
22 11 11
23 18 10
24 0 2
25 3 3
26 11 3
27 15 3
28 15 2
